lopls2015

pair_coeff
1 3.50 0.066 CT
2 2.42 0.015 HC
3 3.50 0.066 CT
4 3.50 0.066 CT
5 3.50 0.066 CT
6 2.50 0.030 HC
7 2.50 0.026 HC
8 3.19 0.105 C_2
9 3.11 0.168 O_2
10 2.55 0.170 OS

bond_coeff
1 1.229 570.0 C_2--O_2
2 1.522 317.0 C_2--CT
3 1.327 214.0 OS--C_2
4 1.529 268.0 CT--CT
5 1.410 320.0 CT--OS
6 1.090 340.0 CT--HC

angle_coeff
1 120.4 80.00 CT--C_2--O_2
2 111.4 81.00 OS--C_2--CT
3 123.4 83.00 OS--C_2--O_2
4 112.7 58.35 CT--CT--CT
5 111.1 63.00 C_2--CT--CT
6 109.5 50.00 CT--CT--OS
7 107.8 33.00 HC--CT--HC
8 109.5 35.00 C_2--CT--HC
9 109.5 35.00 OS--CT--HC
10 110.7 37.50 CT--CT--HC
11 116.9 83.00 CT--OS--C_2

dihedral_coeff
1 -0.00000 -0.00000 -0.00000 0.00000 O_2--C_2--CT--HC
2 -0.00000 0.00000 0.30000 0.00000 CT--CT--CT--HC
3 -0.00000 0.00000 0.30000 0.00000 HC--CT--CT--HC
4 0.00000 0.00000 0.19800 0.00000 C_2--OS--CT--HC
5 0.64470 -0.21434 0.17822 0.00000 CT--CT--CT--CT
6 3.11924 5.73771 -0.00000 0.00000 CT--OS--C_2--CT
7 -0.00000 5.73772 -0.00000 0.00000 CT--OS--C_2--O_2
8 -0.00742 0.00218 0.11181 0.00000 OS--C_2--CT--HC
9 -1.73540 -1.24844 0.62389 0.00000 CT--CT--OS--C_2
10 0.88498 -0.62690 -0.49334 0.00000 OS--C_2--CT--CT
11 -0.27601 1.23685 -0.67075 0.00000 CT--CT--C_2--O_2
12 -0.00213 0.01735 -0.29521 0.00000 C_2--CT--CT--HC
13 -2.30739 -0.62733 0.62195 0.00000 C_2--CT--CT--CT
14 2.25871 -1.02408 1.00710 0.00000 CT--CT--CT--OS
