opls1996

pair_coeff
1 3.50 0.066 CT
2 3.50 0.066 CT
3 3.50 0.066 CT
4 2.50 0.030 HC
5 3.75 0.105 C_2
6 2.96 0.210 O_2
7 3.00 0.170 OS
8 2.42 0.015 HC
9 3.50 0.066 CT

bond_coeff
1 1.229 570.0 C_2--O_2
2 1.522 317.0 C_2--CT
3 1.327 214.0 OS--C_2
4 1.529 268.0 CT--CT
5 1.410 320.0 CT--OS
6 1.090 340.0 CT--HC

angle_coeff
1 120.4 80.00 CT--C_2--O_2
2 111.4 81.00 OS--C_2--CT
3 123.4 83.00 OS--C_2--O_2
4 112.7 58.35 CT--CT--CT
5 111.1 63.00 C_2--CT--CT
6 109.5 50.00 CT--CT--OS
7 107.8 33.00 HC--CT--HC
8 109.5 35.00 C_2--CT--HC
9 109.5 35.00 OS--CT--HC
10 110.7 37.50 CT--CT--HC
11 116.9 83.00 CT--OS--C_2

dihedral_coeff
1 0.00000 0.00000 0.00000 0.00000 CT--CT--C_2--O_2
2 0.00000 0.00000 0.00000 0.00000 O_2--C_2--CT--HC
3 0.00000 0.00000 -0.55300 0.00000 OS--C_2--CT--CT
4 0.00000 0.00000 0.13200 0.00000 OS--C_2--CT--HC
5 0.00000 5.12400 0.00000 0.00000 CT--OS--C_2--O_2
6 4.66900 5.12400 0.00000 0.00000 CT--OS--C_2--CT
7 -2.06000 -0.31300 0.31500 0.00000 C_2--CT--CT--CT
8 0.00000 0.00000 -0.10000 0.00000 C_2--CT--CT--HC
9 1.30000 -0.05000 0.20000 0.00000 CT--CT--CT--CT
10 0.00000 0.00000 0.30000 0.00000 CT--CT--CT--HC
11 0.00000 0.00000 0.30000 0.00000 HC--CT--CT--HC
12 -1.22000 -0.12600 0.42200 0.00000 CT--CT--OS--C_2
13 0.00000 0.00000 0.19800 0.00000 C_2--OS--CT--HC
14 1.30000 -0.05000 0.20000 0.00000 CT--CT--CT--OS
