# Generated with Gro2lam

units real
boundary p p p
atom_style full

atom_modify map array
pair_style lj/cut/coul/cut 8.5 10
bond_style harmonic
angle_style harmonic
dihedral_style opls

read_data /Users/apple/Documents/GitHub/lmpcodes/gromacs/g2l_dir/data.gro2lam

neighbor 1.9 bin
special_bonds lj/coul 0.0 0.0 0.5
pair_modify shift no tail yes mix geometric
neigh_modify every 1 delay 1 check yes

timestep 0.1


thermo 10
thermo_style custom step temp press vol epair emol etotal enthalpy

velocity all create 300 1234567 rot yes dist gaussian


fix nve_name1 all nve
run 1000
unfix nve_name1

fix nvt_name1 all nvt temp 300 300 100
run 1000
unfix nvt_name1

fix npt_name1 all npt temp 299 300 100 aniso 10 1 1000
run 1000
unfix npt_name1

fix nvt_name1 all nvt temp 300 300 100
run 1000
unfix nvt_name1


write_restart restart.g2l_400fs
