  atom_style full
  units real
  bond_style harmonic
  angle_style harmonic
  dihedral_style hybrid opls multi/harmonic
  improper_style harmonic
  pair_style lj/cut/coul/long 10.0 10.0
  pair_modify mix geometric
  special_bonds lj/coul 0.0 0.0 0.5
  kspace_style pppm 0.0001
