
atom_style full
units real

# Define parameters
# T and srate are passed by command line
variable DT equal 0.5 # time step [fs]
#variable	srate equal 2e-7 # shear rate [1/fs]
variable fname string ${T}K-srate=${srate}.txt

# read restart file from previous equilibrium run
read_restart    pec6_125.equi${T}K
neigh_modify	delay 0 every 1


# initialization
bond_style harmonic
angle_style harmonic
dihedral_style opls
improper_style harmonic
pair_style lj/cut/coul/long 12.0 12.0
pair_modify tail yes mix geometric
special_bonds lj/coul 0.0 0.0 0.5

# force field parameters, ff is passed by command line
include    pec6.${ff}.settings


change_box all triclinic
kspace_style pppm 0.00001 # must redefine pppm after changing to triclinic


timestep ${DT}
reset_timestep	0
#run_style respa 2 4


# CORE part of NEMD simulation; using SLLOD algorithm.

fix		nemd1 all nvt/sllod temp $T $T $(100*dt)
fix		nemd2 all deform 1 xy erate ${srate} remap v

compute		usual all temp
compute		tilt  all temp/deform
compute     tiltp all pressure tilt

#compute         layers all chunk/atom bin/1d y center 0.05 units reduced
#fix		4 all ave/chunk 100 250 25000 layers vx file velocity.txt

# data gathering
variable        stress equal (-1)*c_tiltp[4]  # -pxy
variable        h1 equal c_tiltp[1]  # pxx
variable        h2 equal c_tiltp[2]  # pyy
variable        h3 equal c_tiltp[3]  # pzz
variable        h4 equal c_tiltp[4]  # pxy
variable        h5 equal c_tiltp[5]  # pxz
variable        h6 equal c_tiltp[6]  # pyz
variable	visc equal 101325e-12*v_stress/(v_srate) # shear viscosity [mPa s]; first term is unit converter

fix		viscave all ave/time 10 1000 10000 v_visc ave running start 10000 file ${fname}

thermo 10000
thermo_style	custom step temp press pxy v_visc f_viscave
thermo_modify	temp tilt
thermo_modify   press tiltp

# only need to run for 5400 steps to make a good 100-frame movie
# set 54K steps above in equil and 5400 here simply to make good movie
# 54K and 5400 are multiples of box-swap periodicity = 2700 steps

#dump myDump all atom 10000 pec6.lammpstrj

#dump	        1 all custom 50 dump.nemd.2d id type x y z vx

#dump		2 all image 50 image.*.jpg vx type zoom 1.2 adiam 1.2
#dump_modify	2 pad 5 amap 0.0 ${srate} ca 0.0 2 min blue max red

restart 1000000 ${T}K.restart.A ${T}K.restart.B
run		50000000

write_restart restart.pec6
